
Gurobi 9.0.1 (linux64) logging started Thu Apr 30 05:57:42 2020

Gurobi Optimizer version 9.0.1 build v9.0.1rc0 (linux64)
Optimize a model with 932 rows, 990 columns and 7056 nonzeros
Model fingerprint: 0x690110fe
Variable types: 0 continuous, 990 integer (980 binary)
Coefficient statistics:
  Matrix range     [1e+00, 5e+00]
  Objective range  [7e+00, 1e+02]
  Bounds range     [1e+00, 1e+00]
  RHS range        [1e+00, 1e+00]

User MIP start produced solution with objective 601 (0.00s)
Loaded user MIP start with objective 601

Presolve removed 338 rows and 420 columns
Presolve time: 0.04s
Presolved: 594 rows, 570 columns, 4662 nonzeros
Variable types: 0 continuous, 570 integer (562 binary)

Root relaxation: objective 4.486199e+02, 541 iterations, 0.02 seconds

    Nodes    |    Current Node    |     Objective Bounds      |     Work
 Expl Unexpl |  Obj  Depth IntInf | Incumbent    BestBd   Gap | It/Node Time

     0     0  448.61991    0  217  601.00000  448.61991  25.4%     -    0s
     0     0  477.64613    0  226  601.00000  477.64613  20.5%     -    0s
     0     0  477.68963    0  225  601.00000  477.68963  20.5%     -    0s
     0     0  477.68972    0  225  601.00000  477.68972  20.5%     -    0s
     0     0  489.25470    0  227  601.00000  489.25470  18.6%     -    0s
     0     0  489.41399    0  232  601.00000  489.41399  18.6%     -    0s
     0     0  489.42554    0  236  601.00000  489.42554  18.6%     -    0s
     0     0  498.87484    0  247  601.00000  498.87484  17.0%     -    0s
     0     0  500.05764    0  258  601.00000  500.05764  16.8%     -    0s
     0     0  500.18127    0  251  601.00000  500.18127  16.8%     -    0s
     0     0  500.18604    0  251  601.00000  500.18604  16.8%     -    0s
     0     0  504.99118    0  255  601.00000  504.99118  16.0%     -    0s
     0     0  506.71505    0  249  601.00000  506.71505  15.7%     -    0s
     0     0  506.82525    0  253  601.00000  506.82525  15.7%     -    0s
     0     0  506.84536    0  256  601.00000  506.84536  15.7%     -    0s
     0     0  507.96322    0  249  601.00000  507.96322  15.5%     -    0s
     0     0  508.12131    0  247  601.00000  508.12131  15.5%     -    0s
     0     0  508.13572    0  248  601.00000  508.13572  15.5%     -    0s
     0     0  508.46004    0  248  601.00000  508.46004  15.4%     -    0s
     0     0  508.55395    0  246  601.00000  508.55395  15.4%     -    0s
     0     0  508.56596    0  251  601.00000  508.56596  15.4%     -    0s
     0     0  508.73945    0  249  601.00000  508.73945  15.4%     -    0s
     0     0  508.73945    0  248  601.00000  508.73945  15.4%     -    0s
     0     2  508.91388    0  248  601.00000  508.91388  15.3%     -    0s
H  379   176                     596.9999990  533.60847  10.6%  80.6    3s
H  394   172                     589.0000000  533.60847  9.40%  79.3    4s
H  406   147                     582.0000000  533.60847  8.31%  77.2    4s
H  433   137                     576.0000000  534.50588  7.20%  75.6    4s
   526   144     cutoff   13       576.00000  537.61432  6.66%  74.0    5s
*  958   147              14     568.0000000  546.77932  3.74%  69.0    8s

Cutting planes:
  Cover: 3
  MIR: 28
  GUB cover: 1
  Inf proof: 2
  Zero half: 32
  RLT: 144

Explored 1306 nodes (82417 simplex iterations) in 9.48 seconds
Thread count was 1 (of 40 available processors)

Solution count 6: 568 576 582 ... 601

Optimal solution found (tolerance 1.00e-04)
Best objective 5.680000000000e+02, best bound 5.680000000000e+02, gap 0.0000%

User-callback calls 5047, time in user-callback 0.00 sec
